Minimize
   z: 152 quantity_e_0_0 + 152 quantity_e_1_0 + 47 quantity_e_2_0 + 122 quantity_e_3_0 + 138 quantity_e_4_0 + 182 quantity_e_5_0 + 115 quantity_e_6_0 + 171 quantity_e_7_0 + 210 quantity_e_8_0 + 47 quantity_e_9_0 + 109 quantity_e_10_0 + 155 quantity_e_11_0 + 175 quantity_e_12_0 + 222 quantity_e_13_0 + 181 quantity_e_14_0 + 245 quantity_e_15_0 + 113 quantity_e_16_0 - 7 quantity_e_17_0 + 266 quantity_e_18_0 + 209 quantity_e_19_0 + 171 quantity_e_20_0 + 82 quantity_e_21_0 + 67 quantity_e_22_0 + 16 quantity_e_23_0 + 177 quantity_e_24_0 + 86 quantity_e_25_0 - 10 quantity_e_26_0 + 108 quantity_e_27_0 + 57 quantity_e_28_0 + 121 quantity_e_29_0 + 76 quantity_e_30_0 + 143 quantity_e_31_0 + 109 quantity_e_32_0 + 55 quantity_e_33_0 + 29 quantity_e_34_0 + 56 quantity_e_35_0 + 34 quantity_e_36_0 + 39 quantity_e_37_0 + 114 quantity_e_38_0 + 65 quantity_e_39_0 + 16 quantity_e_40_0 + 0 quantity_e_41_0 + 166 quantity_e_42_0 + 213 quantity_e_43_0 + 47 quantity_e_44_0 - 8 quantity_e_45_0 + 48 quantity_e_46_0 + 94 quantity_e_47_0 + 98 quantity_e_48_0 + 47 quantity_e_49_0 - 15 quantity_e_50_0 + 110 quantity_e_51_0 + 136 quantity_e_52_0 + 49 quantity_e_53_0 + 191 quantity_e_54_0 + 204 quantity_e_55_0 + 127 quantity_e_56_0 + 103 quantity_e_57_0 + 18 quantity_e_58_0 + 179 quantity_e_59_0 + 153 quantity_e_0_1 + 143 quantity_e_1_1 + 48 quantity_e_2_1 + 130 quantity_e_3_1 + 149 quantity_e_4_1 + 183 quantity_e_5_1 + 121 quantity_e_6_1 + 171 quantity_e_7_1 + 204 quantity_e_8_1 + 34 quantity_e_9_1 + 124 quantity_e_10_1 + 140 quantity_e_11_1 + 178 quantity_e_12_1 + 225 quantity_e_13_1 + 194 quantity_e_14_1 + 248 quantity_e_15_1 + 106 quantity_e_16_1 - 14 quantity_e_17_1 + 271 quantity_e_18_1 + 196 quantity_e_19_1 + 181 quantity_e_20_1 + 77 quantity_e_21_1 + 58 quantity_e_22_1 + 14 quantity_e_23_1 + 187 quantity_e_24_1 + 73 quantity_e_25_1 + 8 quantity_e_26_1 + 121 quantity_e_27_1 + 55 quantity_e_28_1 + 107 quantity_e_29_1 + 68 quantity_e_30_1 + 153 quantity_e_31_1 + 122 quantity_e_32_1 + 58 quantity_e_33_1 + 48 quantity_e_34_1 + 55 quantity_e_35_1 + 50 quantity_e_36_1 + 27 quantity_e_37_1 + 105 quantity_e_38_1 + 60 quantity_e_39_1 + 29 quantity_e_40_1 + 7 quantity_e_41_1 + 159 quantity_e_42_1 + 221 quantity_e_43_1 + 50 quantity_e_44_1 - 4 quantity_e_45_1 + 59 quantity_e_46_1 + 91 quantity_e_47_1 + 100 quantity_e_48_1 + 45 quantity_e_49_1 - 13 quantity_e_50_1 + 117 quantity_e_51_1 + 139 quantity_e_52_1 + 64 quantity_e_53_1 + 192 quantity_e_54_1 + 205 quantity_e_55_1 + 110 quantity_e_56_1 + 98 quantity_e_57_1 + 8 quantity_e_58_1 + 170 quantity_e_59_1 + 146 quantity_e_0_2 + 161 quantity_e_1_2 + 52 quantity_e_2_2 + 123 quantity_e_3_2 + 138 quantity_e_4_2 + 192 quantity_e_5_2 + 121 quantity_e_6_2 + 174 quantity_e_7_2 + 199 quantity_e_8_2 + 31 quantity_e_9_2 + 126 quantity_e_10_2 + 141 quantity_e_11_2 + 171 quantity_e_12_2 + 222 quantity_e_13_2 + 187 quantity_e_14_2 + 244 quantity_e_15_2 + 116 quantity_e_16_2 - 16 quantity_e_17_2 + 279 quantity_e_18_2 + 198 quantity_e_19_2 + 182 quantity_e_20_2 + 74 quantity_e_21_2 + 70 quantity_e_22_2 + 10 quantity_e_23_2 + 171 quantity_e_24_2 + 77 quantity_e_25_2 + 4 quantity_e_26_2 + 114 quantity_e_27_2 + 44 quantity_e_28_2 + 114 quantity_e_29_2 + 73 quantity_e_30_2 + 146 quantity_e_31_2 + 118 quantity_e_32_2 + 55 quantity_e_33_2 + 42 quantity_e_34_2 + 54 quantity_e_35_2 + 42 quantity_e_36_2 + 39 quantity_e_37_2 + 103 quantity_e_38_2 + 55 quantity_e_39_2 + 31 quantity_e_40_2 - 7 quantity_e_41_2 + 172 quantity_e_42_2 + 223 quantity_e_43_2 + 43 quantity_e_44_2 + 8 quantity_e_45_2 + 48 quantity_e_46_2 + 94 quantity_e_47_2 + 97 quantity_e_48_2 + 53 quantity_e_49_2 - 18 quantity_e_50_2 + 118 quantity_e_51_2 + 140 quantity_e_52_2 + 67 quantity_e_53_2 + 190 quantity_e_54_2 + 197 quantity_e_55_2 + 121 quantity_e_56_2 + 98 quantity_e_57_2 + 22 quantity_e_58_2 + 170 quantity_e_59_2 + 150 quantity_e_0_3 + 159 quantity_e_1_3 + 54 quantity_e_2_3 + 125 quantity_e_3_3 + 131 quantity_e_4_3 + 194 quantity_e_5_3 + 119 quantity_e_6_3 + 177 quantity_e_7_3 + 199 quantity_e_8_3 + 43 quantity_e_9_3 + 107 quantity_e_10_3 + 149 quantity_e_11_3 + 176 quantity_e_12_3 + 233 quantity_e_13_3 + 192 quantity_e_14_3 + 252 quantity_e_15_3 + 104 quantity_e_16_3 - 17 quantity_e_17_3 + 279 quantity_e_18_3 + 201 quantity_e_19_3 + 169 quantity_e_20_3 + 70 quantity_e_21_3 + 58 quantity_e_22_3 + 23 quantity_e_23_3 + 189 quantity_e_24_3 + 83 quantity_e_25_3 - 1 quantity_e_26_3 + 111 quantity_e_27_3 + 47 quantity_e_28_3 + 105 quantity_e_29_3 + 63 quantity_e_30_3 + 144 quantity_e_31_3 + 117 quantity_e_32_3 + 64 quantity_e_33_3 + 29 quantity_e_34_3 + 54 quantity_e_35_3 + 50 quantity_e_36_3 + 35 quantity_e_37_3 + 106 quantity_e_38_3 + 60 quantity_e_39_3 + 19 quantity_e_40_3 + 5 quantity_e_41_3 + 157 quantity_e_42_3 + 228 quantity_e_43_3 + 49 quantity_e_44_3 + 8 quantity_e_45_3 + 55 quantity_e_46_3 + 106 quantity_e_47_3 + 93 quantity_e_48_3 + 49 quantity_e_49_3 - 2 quantity_e_50_3 + 99 quantity_e_51_3 + 140 quantity_e_52_3 + 58 quantity_e_53_3 + 186 quantity_e_54_3 + 208 quantity_e_55_3 + 112 quantity_e_56_3 + 96 quantity_e_57_3 + 13 quantity_e_58_3 + 170 quantity_e_59_3
Subject to
   contraite_2_0: quantity_e_9_0 - quantity_e_8_0 = 0
   contraite_5_0: quantity_e_8_0 + quantity_e_19_0 - quantity_e_9_0 - quantity_e_18_0 = 0
   contraite_19_0: quantity_e_14_0 + quantity_e_18_0 + quantity_e_52_0 - quantity_e_15_0 - quantity_e_19_0 - quantity_e_53_0 = 655
   contraite_9_0: quantity_e_6_0 + quantity_e_33_0 + quantity_e_35_0 - quantity_e_7_0 - quantity_e_32_0 - quantity_e_34_0 = 225
   contraite_2_1: quantity_e_9_1 - quantity_e_8_1 = 67
   contraite_5_1: quantity_e_8_1 + quantity_e_19_1 - quantity_e_9_1 - quantity_e_18_1 = 262
   contraite_19_1: quantity_e_14_1 + quantity_e_18_1 + quantity_e_52_1 - quantity_e_15_1 - quantity_e_19_1 - quantity_e_53_1 = 34
   contraite_9_1: quantity_e_6_1 + quantity_e_33_1 + quantity_e_35_1 - quantity_e_7_1 - quantity_e_32_1 - quantity_e_34_1 = 393
   contraite_2_2: quantity_e_9_2 - quantity_e_8_2 = 0
   contraite_5_2: quantity_e_8_2 + quantity_e_19_2 - quantity_e_9_2 - quantity_e_18_2 = 1069
   contraite_19_2: quantity_e_14_2 + quantity_e_18_2 + quantity_e_52_2 - quantity_e_15_2 - quantity_e_19_2 - quantity_e_53_2 = 0
   contraite_9_2: quantity_e_6_2 + quantity_e_33_2 + quantity_e_35_2 - quantity_e_7_2 - quantity_e_32_2 - quantity_e_34_2 = 162
   contraite_2_3: quantity_e_9_3 - quantity_e_8_3 = 0
   contraite_5_3: quantity_e_8_3 + quantity_e_19_3 - quantity_e_9_3 - quantity_e_18_3 = 1756
   contraite_19_3: quantity_e_14_3 + quantity_e_18_3 + quantity_e_52_3 - quantity_e_15_3 - quantity_e_19_3 - quantity_e_53_3 = 337
   contraite_9_3: quantity_e_6_3 + quantity_e_33_3 + quantity_e_35_3 - quantity_e_7_3 - quantity_e_32_3 - quantity_e_34_3 = 321
   contraite_18_0: quantity_e_57_0 - quantity_e_56_0 <= 0
   contraite_4_0: quantity_e_16_0 - quantity_e_17_0 <= 645
   contraite_0_0: quantity_e_0_0 + quantity_e_2_0 - quantity_e_1_0 - quantity_e_3_0 <= 236
   contraite_8_0: quantity_e_3_0 + quantity_e_25_0 + quantity_e_28_0 + quantity_e_30_0 - quantity_e_2_0 - quantity_e_24_0 - quantity_e_29_0 - quantity_e_31_0 <= 0
   contraite_18_1: quantity_e_57_1 - quantity_e_56_1 <= 0
   contraite_4_1: quantity_e_16_1 - quantity_e_17_1 <= 758
   contraite_0_1: quantity_e_0_1 + quantity_e_2_1 - quantity_e_1_1 - quantity_e_3_1 <= 0
   contraite_8_1: quantity_e_3_1 + quantity_e_25_1 + quantity_e_28_1 + quantity_e_30_1 - quantity_e_2_1 - quantity_e_24_1 - quantity_e_29_1 - quantity_e_31_1 <= 0
   contraite_18_2: quantity_e_57_2 - quantity_e_56_2 <= 0
   contraite_4_2: quantity_e_16_2 - quantity_e_17_2 <= 773
   contraite_0_2: quantity_e_0_2 + quantity_e_2_2 - quantity_e_1_2 - quantity_e_3_2 <= 0
   contraite_8_2: quantity_e_3_2 + quantity_e_25_2 + quantity_e_28_2 + quantity_e_30_2 - quantity_e_2_2 - quantity_e_24_2 - quantity_e_29_2 - quantity_e_31_2 <= 459
   contraite_18_3: quantity_e_57_3 - quantity_e_56_3 <= 904
   contraite_4_3: quantity_e_16_3 - quantity_e_17_3 <= 670
   contraite_0_3: quantity_e_0_3 + quantity_e_2_3 - quantity_e_1_3 - quantity_e_3_3 <= 842
   contraite_8_3: quantity_e_3_3 + quantity_e_25_3 + quantity_e_28_3 + quantity_e_30_3 - quantity_e_2_3 - quantity_e_24_3 - quantity_e_29_3 - quantity_e_31_3 <= 0
   contraite_1_0: quantity_e_5_0 + quantity_e_7_0 - quantity_e_4_0 - quantity_e_6_0 = 0
   contraite_3_0: quantity_e_11_0 + quantity_e_13_0 + quantity_e_15_0 - quantity_e_10_0 - quantity_e_12_0 - quantity_e_14_0 = 0
   contraite_6_0: quantity_e_21_0 + quantity_e_23_0 - quantity_e_20_0 - quantity_e_22_0 = 0
   contraite_7_0: quantity_e_4_0 + quantity_e_16_0 + quantity_e_25_0 + quantity_e_27_0 - quantity_e_5_0 - quantity_e_17_0 - quantity_e_24_0 - quantity_e_26_0 = 0
   contraite_10_0: quantity_e_28_0 + quantity_e_37_0 + quantity_e_39_0 + quantity_e_41_0 - quantity_e_29_0 - quantity_e_36_0 - quantity_e_38_0 - quantity_e_40_0 = 0
   contraite_11_0: quantity_e_12_0 + quantity_e_22_0 + quantity_e_43_0 + quantity_e_45_0 - quantity_e_13_0 - quantity_e_23_0 - quantity_e_42_0 - quantity_e_44_0 = 0
   contraite_12_0: quantity_e_26_0 + quantity_e_47_0 + quantity_e_49_0 - quantity_e_27_0 - quantity_e_46_0 - quantity_e_48_0 = 0
   contraite_13_0: quantity_e_20_0 + quantity_e_32_0 + quantity_e_44_0 - quantity_e_21_0 - quantity_e_33_0 - quantity_e_45_0 = 0
   contraite_14_0: quantity_e_0_0 + quantity_e_34_0 + quantity_e_36_0 + quantity_e_38_0 + quantity_e_51_0 + quantity_e_53_0 - quantity_e_1_0 - quantity_e_35_0 - quantity_e_37_0 - quantity_e_39_0 - quantity_e_50_0 - quantity_e_52_0 = 0
   contraite_15_0: quantity_e_10_0 + quantity_e_30_0 + quantity_e_42_0 + quantity_e_50_0 + quantity_e_55_0 + quantity_e_57_0 - quantity_e_11_0 - quantity_e_31_0 - quantity_e_43_0 - quantity_e_51_0 - quantity_e_54_0 - quantity_e_56_0 = 0
   contraite_16_0: quantity_e_40_0 + quantity_e_54_0 + quantity_e_59_0 - quantity_e_41_0 - quantity_e_55_0 - quantity_e_58_0 = 0
   contraite_17_0: quantity_e_46_0 + quantity_e_48_0 + quantity_e_58_0 - quantity_e_47_0 - quantity_e_49_0 - quantity_e_59_0 = 0
   contraite_1_1: quantity_e_5_1 + quantity_e_7_1 - quantity_e_4_1 - quantity_e_6_1 = 0
   contraite_3_1: quantity_e_11_1 + quantity_e_13_1 + quantity_e_15_1 - quantity_e_10_1 - quantity_e_12_1 - quantity_e_14_1 = 0
   contraite_6_1: quantity_e_21_1 + quantity_e_23_1 - quantity_e_20_1 - quantity_e_22_1 = 0
   contraite_7_1: quantity_e_4_1 + quantity_e_16_1 + quantity_e_25_1 + quantity_e_27_1 - quantity_e_5_1 - quantity_e_17_1 - quantity_e_24_1 - quantity_e_26_1 = 0
   contraite_10_1: quantity_e_28_1 + quantity_e_37_1 + quantity_e_39_1 + quantity_e_41_1 - quantity_e_29_1 - quantity_e_36_1 - quantity_e_38_1 - quantity_e_40_1 = 0
   contraite_11_1: quantity_e_12_1 + quantity_e_22_1 + quantity_e_43_1 + quantity_e_45_1 - quantity_e_13_1 - quantity_e_23_1 - quantity_e_42_1 - quantity_e_44_1 = 0
   contraite_12_1: quantity_e_26_1 + quantity_e_47_1 + quantity_e_49_1 - quantity_e_27_1 - quantity_e_46_1 - quantity_e_48_1 = 0
   contraite_13_1: quantity_e_20_1 + quantity_e_32_1 + quantity_e_44_1 - quantity_e_21_1 - quantity_e_33_1 - quantity_e_45_1 = 0
   contraite_14_1: quantity_e_0_1 + quantity_e_34_1 + quantity_e_36_1 + quantity_e_38_1 + quantity_e_51_1 + quantity_e_53_1 - quantity_e_1_1 - quantity_e_35_1 - quantity_e_37_1 - quantity_e_39_1 - quantity_e_50_1 - quantity_e_52_1 = 0
   contraite_15_1: quantity_e_10_1 + quantity_e_30_1 + quantity_e_42_1 + quantity_e_50_1 + quantity_e_55_1 + quantity_e_57_1 - quantity_e_11_1 - quantity_e_31_1 - quantity_e_43_1 - quantity_e_51_1 - quantity_e_54_1 - quantity_e_56_1 = 0
   contraite_16_1: quantity_e_40_1 + quantity_e_54_1 + quantity_e_59_1 - quantity_e_41_1 - quantity_e_55_1 - quantity_e_58_1 = 0
   contraite_17_1: quantity_e_46_1 + quantity_e_48_1 + quantity_e_58_1 - quantity_e_47_1 - quantity_e_49_1 - quantity_e_59_1 = 0
   contraite_1_2: quantity_e_5_2 + quantity_e_7_2 - quantity_e_4_2 - quantity_e_6_2 = 0
   contraite_3_2: quantity_e_11_2 + quantity_e_13_2 + quantity_e_15_2 - quantity_e_10_2 - quantity_e_12_2 - quantity_e_14_2 = 0
   contraite_6_2: quantity_e_21_2 + quantity_e_23_2 - quantity_e_20_2 - quantity_e_22_2 = 0
   contraite_7_2: quantity_e_4_2 + quantity_e_16_2 + quantity_e_25_2 + quantity_e_27_2 - quantity_e_5_2 - quantity_e_17_2 - quantity_e_24_2 - quantity_e_26_2 = 0
   contraite_10_2: quantity_e_28_2 + quantity_e_37_2 + quantity_e_39_2 + quantity_e_41_2 - quantity_e_29_2 - quantity_e_36_2 - quantity_e_38_2 - quantity_e_40_2 = 0
   contraite_11_2: quantity_e_12_2 + quantity_e_22_2 + quantity_e_43_2 + quantity_e_45_2 - quantity_e_13_2 - quantity_e_23_2 - quantity_e_42_2 - quantity_e_44_2 = 0
   contraite_12_2: quantity_e_26_2 + quantity_e_47_2 + quantity_e_49_2 - quantity_e_27_2 - quantity_e_46_2 - quantity_e_48_2 = 0
   contraite_13_2: quantity_e_20_2 + quantity_e_32_2 + quantity_e_44_2 - quantity_e_21_2 - quantity_e_33_2 - quantity_e_45_2 = 0
   contraite_14_2: quantity_e_0_2 + quantity_e_34_2 + quantity_e_36_2 + quantity_e_38_2 + quantity_e_51_2 + quantity_e_53_2 - quantity_e_1_2 - quantity_e_35_2 - quantity_e_37_2 - quantity_e_39_2 - quantity_e_50_2 - quantity_e_52_2 = 0
   contraite_15_2: quantity_e_10_2 + quantity_e_30_2 + quantity_e_42_2 + quantity_e_50_2 + quantity_e_55_2 + quantity_e_57_2 - quantity_e_11_2 - quantity_e_31_2 - quantity_e_43_2 - quantity_e_51_2 - quantity_e_54_2 - quantity_e_56_2 = 0
   contraite_16_2: quantity_e_40_2 + quantity_e_54_2 + quantity_e_59_2 - quantity_e_41_2 - quantity_e_55_2 - quantity_e_58_2 = 0
   contraite_17_2: quantity_e_46_2 + quantity_e_48_2 + quantity_e_58_2 - quantity_e_47_2 - quantity_e_49_2 - quantity_e_59_2 = 0
   contraite_1_3: quantity_e_5_3 + quantity_e_7_3 - quantity_e_4_3 - quantity_e_6_3 = 0
   contraite_3_3: quantity_e_11_3 + quantity_e_13_3 + quantity_e_15_3 - quantity_e_10_3 - quantity_e_12_3 - quantity_e_14_3 = 0
   contraite_6_3: quantity_e_21_3 + quantity_e_23_3 - quantity_e_20_3 - quantity_e_22_3 = 0
   contraite_7_3: quantity_e_4_3 + quantity_e_16_3 + quantity_e_25_3 + quantity_e_27_3 - quantity_e_5_3 - quantity_e_17_3 - quantity_e_24_3 - quantity_e_26_3 = 0
   contraite_10_3: quantity_e_28_3 + quantity_e_37_3 + quantity_e_39_3 + quantity_e_41_3 - quantity_e_29_3 - quantity_e_36_3 - quantity_e_38_3 - quantity_e_40_3 = 0
   contraite_11_3: quantity_e_12_3 + quantity_e_22_3 + quantity_e_43_3 + quantity_e_45_3 - quantity_e_13_3 - quantity_e_23_3 - quantity_e_42_3 - quantity_e_44_3 = 0
   contraite_12_3: quantity_e_26_3 + quantity_e_47_3 + quantity_e_49_3 - quantity_e_27_3 - quantity_e_46_3 - quantity_e_48_3 = 0
   contraite_13_3: quantity_e_20_3 + quantity_e_32_3 + quantity_e_44_3 - quantity_e_21_3 - quantity_e_33_3 - quantity_e_45_3 = 0
   contraite_14_3: quantity_e_0_3 + quantity_e_34_3 + quantity_e_36_3 + quantity_e_38_3 + quantity_e_51_3 + quantity_e_53_3 - quantity_e_1_3 - quantity_e_35_3 - quantity_e_37_3 - quantity_e_39_3 - quantity_e_50_3 - quantity_e_52_3 = 0
   contraite_15_3: quantity_e_10_3 + quantity_e_30_3 + quantity_e_42_3 + quantity_e_50_3 + quantity_e_55_3 + quantity_e_57_3 - quantity_e_11_3 - quantity_e_31_3 - quantity_e_43_3 - quantity_e_51_3 - quantity_e_54_3 - quantity_e_56_3 = 0
   contraite_16_3: quantity_e_40_3 + quantity_e_54_3 + quantity_e_59_3 - quantity_e_41_3 - quantity_e_55_3 - quantity_e_58_3 = 0
   contraite_17_3: quantity_e_46_3 + quantity_e_48_3 + quantity_e_58_3 - quantity_e_47_3 - quantity_e_49_3 - quantity_e_59_3 = 0
Bounds
   quantity_e_0_0 >= 0
   quantity_e_1_0 >= 0
   quantity_e_2_0 >= 0
   quantity_e_3_0 >= 0
   quantity_e_4_0 >= 0
   quantity_e_5_0 >= 0
   quantity_e_6_0 >= 0
   quantity_e_7_0 >= 0
   quantity_e_8_0 >= 0
   quantity_e_9_0 >= 0
   quantity_e_10_0 >= 0
   quantity_e_11_0 >= 0
   quantity_e_12_0 >= 0
   quantity_e_13_0 >= 0
   quantity_e_14_0 >= 0
   quantity_e_15_0 >= 0
   quantity_e_16_0 >= 0
   quantity_e_17_0 >= 0
   quantity_e_18_0 >= 0
   quantity_e_19_0 >= 0
   quantity_e_20_0 >= 0
   quantity_e_21_0 >= 0
   quantity_e_22_0 >= 0
   quantity_e_23_0 >= 0
   quantity_e_24_0 >= 0
   quantity_e_25_0 >= 0
   quantity_e_26_0 >= 0
   quantity_e_27_0 >= 0
   quantity_e_28_0 >= 0
   quantity_e_29_0 >= 0
   quantity_e_30_0 >= 0
   quantity_e_31_0 >= 0
   quantity_e_32_0 >= 0
   quantity_e_33_0 >= 0
   quantity_e_34_0 >= 0
   quantity_e_35_0 >= 0
   quantity_e_36_0 >= 0
   quantity_e_37_0 >= 0
   quantity_e_38_0 >= 0
   quantity_e_39_0 >= 0
   quantity_e_40_0 >= 0
   quantity_e_41_0 >= 0
   quantity_e_42_0 >= 0
   quantity_e_43_0 >= 0
   quantity_e_44_0 >= 0
   quantity_e_45_0 >= 0
   quantity_e_46_0 >= 0
   quantity_e_47_0 >= 0
   quantity_e_48_0 >= 0
   quantity_e_49_0 >= 0
   quantity_e_50_0 >= 0
   quantity_e_51_0 >= 0
   quantity_e_52_0 >= 0
   quantity_e_53_0 >= 0
   quantity_e_54_0 >= 0
   quantity_e_55_0 >= 0
   quantity_e_56_0 >= 0
   quantity_e_57_0 >= 0
   quantity_e_58_0 >= 0
   quantity_e_59_0 >= 0
   quantity_e_0_1 >= 0
   quantity_e_1_1 >= 0
   quantity_e_2_1 >= 0
   quantity_e_3_1 >= 0
   quantity_e_4_1 >= 0
   quantity_e_5_1 >= 0
   quantity_e_6_1 >= 0
   quantity_e_7_1 >= 0
   quantity_e_8_1 >= 0
   quantity_e_9_1 >= 0
   quantity_e_10_1 >= 0
   quantity_e_11_1 >= 0
   quantity_e_12_1 >= 0
   quantity_e_13_1 >= 0
   quantity_e_14_1 >= 0
   quantity_e_15_1 >= 0
   quantity_e_16_1 >= 0
   quantity_e_17_1 >= 0
   quantity_e_18_1 >= 0
   quantity_e_19_1 >= 0
   quantity_e_20_1 >= 0
   quantity_e_21_1 >= 0
   quantity_e_22_1 >= 0
   quantity_e_23_1 >= 0
   quantity_e_24_1 >= 0
   quantity_e_25_1 >= 0
   quantity_e_26_1 >= 0
   quantity_e_27_1 >= 0
   quantity_e_28_1 >= 0
   quantity_e_29_1 >= 0
   quantity_e_30_1 >= 0
   quantity_e_31_1 >= 0
   quantity_e_32_1 >= 0
   quantity_e_33_1 >= 0
   quantity_e_34_1 >= 0
   quantity_e_35_1 >= 0
   quantity_e_36_1 >= 0
   quantity_e_37_1 >= 0
   quantity_e_38_1 >= 0
   quantity_e_39_1 >= 0
   quantity_e_40_1 >= 0
   quantity_e_41_1 >= 0
   quantity_e_42_1 >= 0
   quantity_e_43_1 >= 0
   quantity_e_44_1 >= 0
   quantity_e_45_1 >= 0
   quantity_e_46_1 >= 0
   quantity_e_47_1 >= 0
   quantity_e_48_1 >= 0
   quantity_e_49_1 >= 0
   quantity_e_50_1 >= 0
   quantity_e_51_1 >= 0
   quantity_e_52_1 >= 0
   quantity_e_53_1 >= 0
   quantity_e_54_1 >= 0
   quantity_e_55_1 >= 0
   quantity_e_56_1 >= 0
   quantity_e_57_1 >= 0
   quantity_e_58_1 >= 0
   quantity_e_59_1 >= 0
   quantity_e_0_2 >= 0
   quantity_e_1_2 >= 0
   quantity_e_2_2 >= 0
   quantity_e_3_2 >= 0
   quantity_e_4_2 >= 0
   quantity_e_5_2 >= 0
   quantity_e_6_2 >= 0
   quantity_e_7_2 >= 0
   quantity_e_8_2 >= 0
   quantity_e_9_2 >= 0
   quantity_e_10_2 >= 0
   quantity_e_11_2 >= 0
   quantity_e_12_2 >= 0
   quantity_e_13_2 >= 0
   quantity_e_14_2 >= 0
   quantity_e_15_2 >= 0
   quantity_e_16_2 >= 0
   quantity_e_17_2 >= 0
   quantity_e_18_2 >= 0
   quantity_e_19_2 >= 0
   quantity_e_20_2 >= 0
   quantity_e_21_2 >= 0
   quantity_e_22_2 >= 0
   quantity_e_23_2 >= 0
   quantity_e_24_2 >= 0
   quantity_e_25_2 >= 0
   quantity_e_26_2 >= 0
   quantity_e_27_2 >= 0
   quantity_e_28_2 >= 0
   quantity_e_29_2 >= 0
   quantity_e_30_2 >= 0
   quantity_e_31_2 >= 0
   quantity_e_32_2 >= 0
   quantity_e_33_2 >= 0
   quantity_e_34_2 >= 0
   quantity_e_35_2 >= 0
   quantity_e_36_2 >= 0
   quantity_e_37_2 >= 0
   quantity_e_38_2 >= 0
   quantity_e_39_2 >= 0
   quantity_e_40_2 >= 0
   quantity_e_41_2 >= 0
   quantity_e_42_2 >= 0
   quantity_e_43_2 >= 0
   quantity_e_44_2 >= 0
   quantity_e_45_2 >= 0
   quantity_e_46_2 >= 0
   quantity_e_47_2 >= 0
   quantity_e_48_2 >= 0
   quantity_e_49_2 >= 0
   quantity_e_50_2 >= 0
   quantity_e_51_2 >= 0
   quantity_e_52_2 >= 0
   quantity_e_53_2 >= 0
   quantity_e_54_2 >= 0
   quantity_e_55_2 >= 0
   quantity_e_56_2 >= 0
   quantity_e_57_2 >= 0
   quantity_e_58_2 >= 0
   quantity_e_59_2 >= 0
   quantity_e_0_3 >= 0
   quantity_e_1_3 >= 0
   quantity_e_2_3 >= 0
   quantity_e_3_3 >= 0
   quantity_e_4_3 >= 0
   quantity_e_5_3 >= 0
   quantity_e_6_3 >= 0
   quantity_e_7_3 >= 0
   quantity_e_8_3 >= 0
   quantity_e_9_3 >= 0
   quantity_e_10_3 >= 0
   quantity_e_11_3 >= 0
   quantity_e_12_3 >= 0
   quantity_e_13_3 >= 0
   quantity_e_14_3 >= 0
   quantity_e_15_3 >= 0
   quantity_e_16_3 >= 0
   quantity_e_17_3 >= 0
   quantity_e_18_3 >= 0
   quantity_e_19_3 >= 0
   quantity_e_20_3 >= 0
   quantity_e_21_3 >= 0
   quantity_e_22_3 >= 0
   quantity_e_23_3 >= 0
   quantity_e_24_3 >= 0
   quantity_e_25_3 >= 0
   quantity_e_26_3 >= 0
   quantity_e_27_3 >= 0
   quantity_e_28_3 >= 0
   quantity_e_29_3 >= 0
   quantity_e_30_3 >= 0
   quantity_e_31_3 >= 0
   quantity_e_32_3 >= 0
   quantity_e_33_3 >= 0
   quantity_e_34_3 >= 0
   quantity_e_35_3 >= 0
   quantity_e_36_3 >= 0
   quantity_e_37_3 >= 0
   quantity_e_38_3 >= 0
   quantity_e_39_3 >= 0
   quantity_e_40_3 >= 0
   quantity_e_41_3 >= 0
   quantity_e_42_3 >= 0
   quantity_e_43_3 >= 0
   quantity_e_44_3 >= 0
   quantity_e_45_3 >= 0
   quantity_e_46_3 >= 0
   quantity_e_47_3 >= 0
   quantity_e_48_3 >= 0
   quantity_e_49_3 >= 0
   quantity_e_50_3 >= 0
   quantity_e_51_3 >= 0
   quantity_e_52_3 >= 0
   quantity_e_53_3 >= 0
   quantity_e_54_3 >= 0
   quantity_e_55_3 >= 0
   quantity_e_56_3 >= 0
   quantity_e_57_3 >= 0
   quantity_e_58_3 >= 0
   quantity_e_59_3 >= 0
Integer
   quantity_e_0_0
   quantity_e_1_0
   quantity_e_2_0
   quantity_e_3_0
   quantity_e_4_0
   quantity_e_5_0
   quantity_e_6_0
   quantity_e_7_0
   quantity_e_8_0
   quantity_e_9_0
   quantity_e_10_0
   quantity_e_11_0
   quantity_e_12_0
   quantity_e_13_0
   quantity_e_14_0
   quantity_e_15_0
   quantity_e_16_0
   quantity_e_17_0
   quantity_e_18_0
   quantity_e_19_0
   quantity_e_20_0
   quantity_e_21_0
   quantity_e_22_0
   quantity_e_23_0
   quantity_e_24_0
   quantity_e_25_0
   quantity_e_26_0
   quantity_e_27_0
   quantity_e_28_0
   quantity_e_29_0
   quantity_e_30_0
   quantity_e_31_0
   quantity_e_32_0
   quantity_e_33_0
   quantity_e_34_0
   quantity_e_35_0
   quantity_e_36_0
   quantity_e_37_0
   quantity_e_38_0
   quantity_e_39_0
   quantity_e_40_0
   quantity_e_41_0
   quantity_e_42_0
   quantity_e_43_0
   quantity_e_44_0
   quantity_e_45_0
   quantity_e_46_0
   quantity_e_47_0
   quantity_e_48_0
   quantity_e_49_0
   quantity_e_50_0
   quantity_e_51_0
   quantity_e_52_0
   quantity_e_53_0
   quantity_e_54_0
   quantity_e_55_0
   quantity_e_56_0
   quantity_e_57_0
   quantity_e_58_0
   quantity_e_59_0
   quantity_e_0_1
   quantity_e_1_1
   quantity_e_2_1
   quantity_e_3_1
   quantity_e_4_1
   quantity_e_5_1
   quantity_e_6_1
   quantity_e_7_1
   quantity_e_8_1
   quantity_e_9_1
   quantity_e_10_1
   quantity_e_11_1
   quantity_e_12_1
   quantity_e_13_1
   quantity_e_14_1
   quantity_e_15_1
   quantity_e_16_1
   quantity_e_17_1
   quantity_e_18_1
   quantity_e_19_1
   quantity_e_20_1
   quantity_e_21_1
   quantity_e_22_1
   quantity_e_23_1
   quantity_e_24_1
   quantity_e_25_1
   quantity_e_26_1
   quantity_e_27_1
   quantity_e_28_1
   quantity_e_29_1
   quantity_e_30_1
   quantity_e_31_1
   quantity_e_32_1
   quantity_e_33_1
   quantity_e_34_1
   quantity_e_35_1
   quantity_e_36_1
   quantity_e_37_1
   quantity_e_38_1
   quantity_e_39_1
   quantity_e_40_1
   quantity_e_41_1
   quantity_e_42_1
   quantity_e_43_1
   quantity_e_44_1
   quantity_e_45_1
   quantity_e_46_1
   quantity_e_47_1
   quantity_e_48_1
   quantity_e_49_1
   quantity_e_50_1
   quantity_e_51_1
   quantity_e_52_1
   quantity_e_53_1
   quantity_e_54_1
   quantity_e_55_1
   quantity_e_56_1
   quantity_e_57_1
   quantity_e_58_1
   quantity_e_59_1
   quantity_e_0_2
   quantity_e_1_2
   quantity_e_2_2
   quantity_e_3_2
   quantity_e_4_2
   quantity_e_5_2
   quantity_e_6_2
   quantity_e_7_2
   quantity_e_8_2
   quantity_e_9_2
   quantity_e_10_2
   quantity_e_11_2
   quantity_e_12_2
   quantity_e_13_2
   quantity_e_14_2
   quantity_e_15_2
   quantity_e_16_2
   quantity_e_17_2
   quantity_e_18_2
   quantity_e_19_2
   quantity_e_20_2
   quantity_e_21_2
   quantity_e_22_2
   quantity_e_23_2
   quantity_e_24_2
   quantity_e_25_2
   quantity_e_26_2
   quantity_e_27_2
   quantity_e_28_2
   quantity_e_29_2
   quantity_e_30_2
   quantity_e_31_2
   quantity_e_32_2
   quantity_e_33_2
   quantity_e_34_2
   quantity_e_35_2
   quantity_e_36_2
   quantity_e_37_2
   quantity_e_38_2
   quantity_e_39_2
   quantity_e_40_2
   quantity_e_41_2
   quantity_e_42_2
   quantity_e_43_2
   quantity_e_44_2
   quantity_e_45_2
   quantity_e_46_2
   quantity_e_47_2
   quantity_e_48_2
   quantity_e_49_2
   quantity_e_50_2
   quantity_e_51_2
   quantity_e_52_2
   quantity_e_53_2
   quantity_e_54_2
   quantity_e_55_2
   quantity_e_56_2
   quantity_e_57_2
   quantity_e_58_2
   quantity_e_59_2
   quantity_e_0_3
   quantity_e_1_3
   quantity_e_2_3
   quantity_e_3_3
   quantity_e_4_3
   quantity_e_5_3
   quantity_e_6_3
   quantity_e_7_3
   quantity_e_8_3
   quantity_e_9_3
   quantity_e_10_3
   quantity_e_11_3
   quantity_e_12_3
   quantity_e_13_3
   quantity_e_14_3
   quantity_e_15_3
   quantity_e_16_3
   quantity_e_17_3
   quantity_e_18_3
   quantity_e_19_3
   quantity_e_20_3
   quantity_e_21_3
   quantity_e_22_3
   quantity_e_23_3
   quantity_e_24_3
   quantity_e_25_3
   quantity_e_26_3
   quantity_e_27_3
   quantity_e_28_3
   quantity_e_29_3
   quantity_e_30_3
   quantity_e_31_3
   quantity_e_32_3
   quantity_e_33_3
   quantity_e_34_3
   quantity_e_35_3
   quantity_e_36_3
   quantity_e_37_3
   quantity_e_38_3
   quantity_e_39_3
   quantity_e_40_3
   quantity_e_41_3
   quantity_e_42_3
   quantity_e_43_3
   quantity_e_44_3
   quantity_e_45_3
   quantity_e_46_3
   quantity_e_47_3
   quantity_e_48_3
   quantity_e_49_3
   quantity_e_50_3
   quantity_e_51_3
   quantity_e_52_3
   quantity_e_53_3
   quantity_e_54_3
   quantity_e_55_3
   quantity_e_56_3
   quantity_e_57_3
   quantity_e_58_3
   quantity_e_59_3
End